p cnf 104 1572
1 2 3 4 0
-5 1 0
-5 4 0
-5 6 0
-5 -7 0
-5 8 0
-5 -9 0
-5 10 0
-11 1 0
-11 4 0
-11 12 0
-11 -7 0
-11 13 0
-11 -14 0
-11 10 0
-15 16 0
-15 4 0
-15 17 0
-15 -18 0
-15 19 0
-15 -20 0
-15 21 0
-22 16 0
-22 4 0
-22 12 0
-22 -18 0
-22 13 0
-22 -14 0
-22 21 0
-23 24 0
-23 4 0
-23 17 0
-23 -25 0
-23 19 0
-23 -20 0
-23 26 0
-27 24 0
-27 4 0
-27 6 0
-27 -25 0
-27 8 0
-27 -9 0
-27 26 0
-28 29 0
-28 17 0
-28 6 0
-28 -30 0
-28 31 0
-28 -9 0
-28 32 0
-33 29 0
-33 17 0
-33 12 0
-33 -30 0
-33 34 0
-33 -14 0
-33 32 0
-35 2 0
-35 17 0
-35 4 0
-35 -36 0
-35 37 0
-35 -38 0
-35 21 0
-39 2 0
-39 17 0
-39 12 0
-39 -36 0
-39 34 0
-39 -14 0
-39 21 0
-40 41 0
-40 17 0
-40 4 0
-40 -42 0
-40 37 0
-40 -38 0
-40 26 0
-43 41 0
-43 17 0
-43 6 0
-43 -42 0
-43 31 0
-43 -9 0
-43 26 0
-44 45 0
-44 6 0
-44 17 0
-44 -46 0
-44 47 0
-44 -20 0
-44 32 0
-48 45 0
-48 6 0
-48 12 0
-48 -46 0
-48 49 0
-48 -14 0
-48 32 0
-50 51 0
-50 6 0
-50 4 0
-50 -52 0
-50 53 0
-50 -38 0
-50 10 0
-54 51 0
-54 6 0
-54 12 0
-54 -52 0
-54 49 0
-54 -14 0
-54 10 0
-55 3 0
-55 6 0
-55 4 0
-55 -56 0
-55 53 0
-55 -38 0
-55 26 0
-57 3 0
-57 6 0
-57 17 0
-57 -56 0
-57 47 0
-57 -20 0
-57 26 0
-58 59 0
-58 12 0
-58 17 0
-58 -60 0
-58 61 0
-58 -20 0
-58 32 0
-62 59 0
-62 12 0
-62 6 0
-62 -60 0
-62 63 0
-62 -9 0
-62 32 0
-64 65 0
-64 12 0
-64 4 0
-64 -66 0
-64 67 0
-64 -38 0
-64 10 0
-68 65 0
-68 12 0
-68 6 0
-68 -66 0
-68 63 0
-68 -9 0
-68 10 0
-69 70 0
-69 12 0
-69 4 0
-69 -71 0
-69 67 0
-69 -38 0
-69 21 0
-72 70 0
-72 12 0
-72 17 0
-72 -71 0
-72 61 0
-72 -20 0
-72 21 0
-73 1 0
-73 4 0
-73 -7 0
-73 74 0
-73 10 0
-75 16 0
-75 4 0
-75 -18 0
-75 74 0
-75 21 0
-76 24 0
-76 4 0
-76 -25 0
-76 74 0
-76 26 0
-77 29 0
-77 17 0
-77 -30 0
-77 78 0
-77 32 0
-79 2 0
-79 17 0
-79 -36 0
-79 78 0
-79 21 0
-80 41 0
-80 17 0
-80 -42 0
-80 78 0
-80 26 0
-81 45 0
-81 6 0
-81 -46 0
-81 82 0
-81 32 0
-83 51 0
-83 6 0
-83 -52 0
-83 82 0
-83 10 0
-84 3 0
-84 6 0
-84 -56 0
-84 82 0
-84 26 0
-85 59 0
-85 12 0
-85 -60 0
-85 86 0
-85 32 0
-87 65 0
-87 12 0
-87 -66 0
-87 86 0
-87 10 0
-88 70 0
-88 12 0
-88 -71 0
-88 86 0
-88 21 0
24 -5 -25 0
29 -5 -30 0
2 -5 -36 0
41 -5 -42 0
45 -5 -46 0
51 -5 -52 0
3 -5 -56 0
59 -5 -60 0
65 -5 -66 0
70 -5 -71 0
4 -5 -38 0
12 -5 -14 0
-89 -5 13 0
-90 -5 37 0
-91 -5 31 0
-92 -5 34 0
-93 -5 53 0
-94 -5 47 0
-95 -5 49 0
-96 -5 67 0
-97 -5 61 0
-98 -5 63 0
-99 -5 32 0
-100 -5 26 0
16 -11 -18 0
29 -11 -30 0
2 -11 -36 0
41 -11 -42 0
45 -11 -46 0
51 -11 -52 0
3 -11 -56 0
59 -11 -60 0
65 -11 -66 0
70 -11 -71 0
4 -11 -38 0
6 -11 -9 0
-101 -11 8 0
-90 -11 37 0
-91 -11 31 0
-92 -11 34 0
-93 -11 53 0
-94 -11 47 0
-95 -11 49 0
-96 -11 67 0
-97 -11 61 0
-98 -11 63 0
-99 -11 32 0
-102 -11 21 0
24 -15 -25 0
29 -15 -30 0
2 -15 -36 0
41 -15 -42 0
45 -15 -46 0
51 -15 -52 0
3 -15 -56 0
59 -15 -60 0
65 -15 -66 0
70 -15 -71 0
4 -15 -38 0
12 -15 -14 0
-89 -15 13 0
-90 -15 37 0
-91 -15 31 0
-92 -15 34 0
-93 -15 53 0
-94 -15 47 0
-95 -15 49 0
-96 -15 67 0
-97 -15 61 0
-98 -15 63 0
-99 -15 32 0
-100 -15 26 0
1 -22 -7 0
29 -22 -30 0
2 -22 -36 0
41 -22 -42 0
45 -22 -46 0
51 -22 -52 0
3 -22 -56 0
59 -22 -60 0
65 -22 -66 0
70 -22 -71 0
4 -22 -38 0
17 -22 -20 0
-103 -22 19 0
-90 -22 37 0
-91 -22 31 0
-92 -22 34 0
-93 -22 53 0
-94 -22 47 0
-95 -22 49 0
-96 -22 67 0
-97 -22 61 0
-98 -22 63 0
-99 -22 32 0
-104 -22 10 0
16 -23 -18 0
29 -23 -30 0
2 -23 -36 0
41 -23 -42 0
45 -23 -46 0
51 -23 -52 0
3 -23 -56 0
59 -23 -60 0
65 -23 -66 0
70 -23 -71 0
4 -23 -38 0
6 -23 -9 0
-101 -23 8 0
-90 -23 37 0
-91 -23 31 0
-92 -23 34 0
-93 -23 53 0
-94 -23 47 0
-95 -23 49 0
-96 -23 67 0
-97 -23 61 0
-98 -23 63 0
-99 -23 32 0
-102 -23 21 0
1 -27 -7 0
29 -27 -30 0
2 -27 -36 0
41 -27 -42 0
45 -27 -46 0
51 -27 -52 0
3 -27 -56 0
59 -27 -60 0
65 -27 -66 0
70 -27 -71 0
4 -27 -38 0
17 -27 -20 0
-103 -27 19 0
-90 -27 37 0
-91 -27 31 0
-92 -27 34 0
-93 -27 53 0
-94 -27 47 0
-95 -27 49 0
-96 -27 67 0
-97 -27 61 0
-98 -27 63 0
-99 -27 32 0
-104 -27 10 0
1 -28 -7 0
16 -28 -18 0
24 -28 -25 0
41 -28 -42 0
45 -28 -46 0
51 -28 -52 0
3 -28 -56 0
59 -28 -60 0
65 -28 -66 0
70 -28 -71 0
17 -28 -20 0
12 -28 -14 0
-103 -28 19 0
-101 -28 8 0
-89 -28 13 0
-92 -28 34 0
-93 -28 53 0
-94 -28 47 0
-95 -28 49 0
-96 -28 67 0
-97 -28 61 0
-98 -28 63 0
-104 -28 10 0
-100 -28 26 0
1 -33 -7 0
16 -33 -18 0
24 -33 -25 0
2 -33 -36 0
45 -33 -46 0
51 -33 -52 0
3 -33 -56 0
59 -33 -60 0
65 -33 -66 0
70 -33 -71 0
17 -33 -20 0
6 -33 -9 0
-103 -33 19 0
-101 -33 8 0
-89 -33 13 0
-91 -33 31 0
-93 -33 53 0
-94 -33 47 0
-95 -33 49 0
-96 -33 67 0
-97 -33 61 0
-98 -33 63 0
-104 -33 10 0
-102 -33 21 0
1 -35 -7 0
16 -35 -18 0
24 -35 -25 0
41 -35 -42 0
45 -35 -46 0
51 -35 -52 0
3 -35 -56 0
59 -35 -60 0
65 -35 -66 0
70 -35 -71 0
17 -35 -20 0
12 -35 -14 0
-103 -35 19 0
-101 -35 8 0
-89 -35 13 0
-92 -35 34 0
-93 -35 53 0
-94 -35 47 0
-95 -35 49 0
-96 -35 67 0
-97 -35 61 0
-98 -35 63 0
-104 -35 10 0
-100 -35 26 0
1 -39 -7 0
16 -39 -18 0
24 -39 -25 0
29 -39 -30 0
45 -39 -46 0
51 -39 -52 0
3 -39 -56 0
59 -39 -60 0
65 -39 -66 0
70 -39 -71 0
4 -39 -38 0
17 -39 -20 0
-103 -39 19 0
-101 -39 8 0
-89 -39 13 0
-90 -39 37 0
-93 -39 53 0
-94 -39 47 0
-95 -39 49 0
-96 -39 67 0
-97 -39 61 0
-98 -39 63 0
-99 -39 32 0
-104 -39 10 0
1 -40 -7 0
16 -40 -18 0
24 -40 -25 0
2 -40 -36 0
45 -40 -46 0
51 -40 -52 0
3 -40 -56 0
59 -40 -60 0
65 -40 -66 0
70 -40 -71 0
17 -40 -20 0
6 -40 -9 0
-103 -40 19 0
-101 -40 8 0
-89 -40 13 0
-91 -40 31 0
-93 -40 53 0
-94 -40 47 0
-95 -40 49 0
-96 -40 67 0
-97 -40 61 0
-98 -40 63 0
-104 -40 10 0
-102 -40 21 0
1 -43 -7 0
16 -43 -18 0
24 -43 -25 0
29 -43 -30 0
45 -43 -46 0
51 -43 -52 0
3 -43 -56 0
59 -43 -60 0
65 -43 -66 0
70 -43 -71 0
4 -43 -38 0
17 -43 -20 0
-103 -43 19 0
-101 -43 8 0
-89 -43 13 0
-90 -43 37 0
-93 -43 53 0
-94 -43 47 0
-95 -43 49 0
-96 -43 67 0
-97 -43 61 0
-98 -43 63 0
-99 -43 32 0
-104 -43 10 0
1 -44 -7 0
16 -44 -18 0
24 -44 -25 0
29 -44 -30 0
2 -44 -36 0
41 -44 -42 0
3 -44 -56 0
59 -44 -60 0
65 -44 -66 0
70 -44 -71 0
6 -44 -9 0
12 -44 -14 0
-103 -44 19 0
-101 -44 8 0
-89 -44 13 0
-90 -44 37 0
-91 -44 31 0
-92 -44 34 0
-95 -44 49 0
-96 -44 67 0
-97 -44 61 0
-98 -44 63 0
-102 -44 21 0
-100 -44 26 0
1 -48 -7 0
16 -48 -18 0
24 -48 -25 0
29 -48 -30 0
2 -48 -36 0
41 -48 -42 0
51 -48 -52 0
59 -48 -60 0
65 -48 -66 0
70 -48 -71 0
17 -48 -20 0
6 -48 -9 0
-103 -48 19 0
-101 -48 8 0
-89 -48 13 0
-90 -48 37 0
-91 -48 31 0
-92 -48 34 0
-94 -48 47 0
-96 -48 67 0
-97 -48 61 0
-98 -48 63 0
-104 -48 10 0
-102 -48 21 0
1 -50 -7 0
16 -50 -18 0
24 -50 -25 0
29 -50 -30 0
2 -50 -36 0
41 -50 -42 0
3 -50 -56 0
59 -50 -60 0
65 -50 -66 0
70 -50 -71 0
6 -50 -9 0
12 -50 -14 0
-103 -50 19 0
-101 -50 8 0
-89 -50 13 0
-90 -50 37 0
-91 -50 31 0
-92 -50 34 0
-95 -50 49 0
-96 -50 67 0
-97 -50 61 0
-98 -50 63 0
-102 -50 21 0
-100 -50 26 0
1 -54 -7 0
16 -54 -18 0
24 -54 -25 0
29 -54 -30 0
2 -54 -36 0
41 -54 -42 0
45 -54 -46 0
59 -54 -60 0
65 -54 -66 0
70 -54 -71 0
4 -54 -38 0
6 -54 -9 0
-103 -54 19 0
-101 -54 8 0
-89 -54 13 0
-90 -54 37 0
-91 -54 31 0
-92 -54 34 0
-93 -54 53 0
-96 -54 67 0
-97 -54 61 0
-98 -54 63 0
-99 -54 32 0
-102 -54 21 0
1 -55 -7 0
16 -55 -18 0
24 -55 -25 0
29 -55 -30 0
2 -55 -36 0
41 -55 -42 0
51 -55 -52 0
59 -55 -60 0
65 -55 -66 0
70 -55 -71 0
17 -55 -20 0
6 -55 -9 0
-103 -55 19 0
-101 -55 8 0
-89 -55 13 0
-90 -55 37 0
-91 -55 31 0
-92 -55 34 0
-94 -55 47 0
-96 -55 67 0
-97 -55 61 0
-98 -55 63 0
-104 -55 10 0
-102 -55 21 0
1 -57 -7 0
16 -57 -18 0
24 -57 -25 0
29 -57 -30 0
2 -57 -36 0
41 -57 -42 0
45 -57 -46 0
59 -57 -60 0
65 -57 -66 0
70 -57 -71 0
4 -57 -38 0
6 -57 -9 0
-103 -57 19 0
-101 -57 8 0
-89 -57 13 0
-90 -57 37 0
-91 -57 31 0
-92 -57 34 0
-93 -57 53 0
-96 -57 67 0
-97 -57 61 0
-98 -57 63 0
-99 -57 32 0
-102 -57 21 0
1 -58 -7 0
16 -58 -18 0
24 -58 -25 0
29 -58 -30 0
2 -58 -36 0
41 -58 -42 0
45 -58 -46 0
51 -58 -52 0
3 -58 -56 0
70 -58 -71 0
6 -58 -9 0
12 -58 -14 0
-103 -58 19 0
-101 -58 8 0
-89 -58 13 0
-90 -58 37 0
-91 -58 31 0
-92 -58 34 0
-93 -58 53 0
-94 -58 47 0
-95 -58 49 0
-98 -58 63 0
-102 -58 21 0
-100 -58 26 0
1 -62 -7 0
16 -62 -18 0
24 -62 -25 0
29 -62 -30 0
2 -62 -36 0
41 -62 -42 0
45 -62 -46 0
51 -62 -52 0
3 -62 -56 0
65 -62 -66 0
17 -62 -20 0
12 -62 -14 0
-103 -62 19 0
-101 -62 8 0
-89 -62 13 0
-90 -62 37 0
-91 -62 31 0
-92 -62 34 0
-93 -62 53 0
-94 -62 47 0
-95 -62 49 0
-97 -62 61 0
-104 -62 10 0
-100 -62 26 0
1 -64 -7 0
16 -64 -18 0
24 -64 -25 0
29 -64 -30 0
2 -64 -36 0
41 -64 -42 0
45 -64 -46 0
51 -64 -52 0
3 -64 -56 0
70 -64 -71 0
6 -64 -9 0
12 -64 -14 0
-103 -64 19 0
-101 -64 8 0
-89 -64 13 0
-90 -64 37 0
-91 -64 31 0
-92 -64 34 0
-93 -64 53 0
-94 -64 47 0
-95 -64 49 0
-98 -64 63 0
-102 -64 21 0
-100 -64 26 0
1 -68 -7 0
16 -68 -18 0
24 -68 -25 0
29 -68 -30 0
2 -68 -36 0
41 -68 -42 0
45 -68 -46 0
51 -68 -52 0
3 -68 -56 0
59 -68 -60 0
4 -68 -38 0
12 -68 -14 0
-103 -68 19 0
-101 -68 8 0
-89 -68 13 0
-90 -68 37 0
-91 -68 31 0
-92 -68 34 0
-93 -68 53 0
-94 -68 47 0
-95 -68 49 0
-96 -68 67 0
-99 -68 32 0
-100 -68 26 0
1 -69 -7 0
16 -69 -18 0
24 -69 -25 0
29 -69 -30 0
2 -69 -36 0
41 -69 -42 0
45 -69 -46 0
51 -69 -52 0
3 -69 -56 0
65 -69 -66 0
17 -69 -20 0
12 -69 -14 0
-103 -69 19 0
-101 -69 8 0
-89 -69 13 0
-90 -69 37 0
-91 -69 31 0
-92 -69 34 0
-93 -69 53 0
-94 -69 47 0
-95 -69 49 0
-97 -69 61 0
-104 -69 10 0
-100 -69 26 0
1 -72 -7 0
16 -72 -18 0
24 -72 -25 0
29 -72 -30 0
2 -72 -36 0
41 -72 -42 0
45 -72 -46 0
51 -72 -52 0
3 -72 -56 0
59 -72 -60 0
4 -72 -38 0
12 -72 -14 0
-103 -72 19 0
-101 -72 8 0
-89 -72 13 0
-90 -72 37 0
-91 -72 31 0
-92 -72 34 0
-93 -72 53 0
-94 -72 47 0
-95 -72 49 0
-96 -72 67 0
-99 -72 32 0
-100 -72 26 0
16 -73 -18 0
24 -73 -25 0
29 -73 -30 0
2 -73 -36 0
41 -73 -42 0
45 -73 -46 0
51 -73 -52 0
3 -73 -56 0
59 -73 -60 0
65 -73 -66 0
70 -73 -71 0
4 -73 -38 0
6 -73 -9 0
12 -73 -14 0
-101 -73 8 0
-89 -73 13 0
-90 -73 37 0
-91 -73 31 0
-92 -73 34 0
-93 -73 53 0
-94 -73 47 0
-95 -73 49 0
-96 -73 67 0
-97 -73 61 0
-98 -73 63 0
-99 -73 32 0
-102 -73 21 0
-100 -73 26 0
1 -75 -7 0
24 -75 -25 0
29 -75 -30 0
2 -75 -36 0
41 -75 -42 0
45 -75 -46 0
51 -75 -52 0
3 -75 -56 0
59 -75 -60 0
65 -75 -66 0
70 -75 -71 0
4 -75 -38 0
17 -75 -20 0
12 -75 -14 0
-103 -75 19 0
-89 -75 13 0
-90 -75 37 0
-91 -75 31 0
-92 -75 34 0
-93 -75 53 0
-94 -75 47 0
-95 -75 49 0
-96 -75 67 0
-97 -75 61 0
-98 -75 63 0
-99 -75 32 0
-104 -75 10 0
-100 -75 26 0
1 -76 -7 0
16 -76 -18 0
29 -76 -30 0
2 -76 -36 0
41 -76 -42 0
45 -76 -46 0
51 -76 -52 0
3 -76 -56 0
59 -76 -60 0
65 -76 -66 0
70 -76 -71 0
4 -76 -38 0
17 -76 -20 0
6 -76 -9 0
-103 -76 19 0
-101 -76 8 0
-90 -76 37 0
-91 -76 31 0
-92 -76 34 0
-93 -76 53 0
-94 -76 47 0
-95 -76 49 0
-96 -76 67 0
-97 -76 61 0
-98 -76 63 0
-99 -76 32 0
-104 -76 10 0
-102 -76 21 0
1 -77 -7 0
16 -77 -18 0
24 -77 -25 0
2 -77 -36 0
41 -77 -42 0
45 -77 -46 0
51 -77 -52 0
3 -77 -56 0
59 -77 -60 0
65 -77 -66 0
70 -77 -71 0
17 -77 -20 0
6 -77 -9 0
12 -77 -14 0
-103 -77 19 0
-101 -77 8 0
-89 -77 13 0
-91 -77 31 0
-92 -77 34 0
-93 -77 53 0
-94 -77 47 0
-95 -77 49 0
-96 -77 67 0
-97 -77 61 0
-98 -77 63 0
-104 -77 10 0
-102 -77 21 0
-100 -77 26 0
1 -79 -7 0
16 -79 -18 0
24 -79 -25 0
29 -79 -30 0
41 -79 -42 0
45 -79 -46 0
51 -79 -52 0
3 -79 -56 0
59 -79 -60 0
65 -79 -66 0
70 -79 -71 0
4 -79 -38 0
17 -79 -20 0
12 -79 -14 0
-103 -79 19 0
-101 -79 8 0
-89 -79 13 0
-90 -79 37 0
-92 -79 34 0
-93 -79 53 0
-94 -79 47 0
-95 -79 49 0
-96 -79 67 0
-97 -79 61 0
-98 -79 63 0
-99 -79 32 0
-104 -79 10 0
-100 -79 26 0
1 -80 -7 0
16 -80 -18 0
24 -80 -25 0
29 -80 -30 0
2 -80 -36 0
45 -80 -46 0
51 -80 -52 0
3 -80 -56 0
59 -80 -60 0
65 -80 -66 0
70 -80 -71 0
4 -80 -38 0
17 -80 -20 0
6 -80 -9 0
-103 -80 19 0
-101 -80 8 0
-89 -80 13 0
-90 -80 37 0
-91 -80 31 0
-93 -80 53 0
-94 -80 47 0
-95 -80 49 0
-96 -80 67 0
-97 -80 61 0
-98 -80 63 0
-99 -80 32 0
-104 -80 10 0
-102 -80 21 0
1 -81 -7 0
16 -81 -18 0
24 -81 -25 0
29 -81 -30 0
2 -81 -36 0
41 -81 -42 0
51 -81 -52 0
3 -81 -56 0
59 -81 -60 0
65 -81 -66 0
70 -81 -71 0
17 -81 -20 0
6 -81 -9 0
12 -81 -14 0
-103 -81 19 0
-101 -81 8 0
-89 -81 13 0
-90 -81 37 0
-91 -81 31 0
-92 -81 34 0
-94 -81 47 0
-95 -81 49 0
-96 -81 67 0
-97 -81 61 0
-98 -81 63 0
-104 -81 10 0
-102 -81 21 0
-100 -81 26 0
1 -83 -7 0
16 -83 -18 0
24 -83 -25 0
29 -83 -30 0
2 -83 -36 0
41 -83 -42 0
45 -83 -46 0
3 -83 -56 0
59 -83 -60 0
65 -83 -66 0
70 -83 -71 0
4 -83 -38 0
6 -83 -9 0
12 -83 -14 0
-103 -83 19 0
-101 -83 8 0
-89 -83 13 0
-90 -83 37 0
-91 -83 31 0
-92 -83 34 0
-93 -83 53 0
-95 -83 49 0
-96 -83 67 0
-97 -83 61 0
-98 -83 63 0
-99 -83 32 0
-102 -83 21 0
-100 -83 26 0
1 -84 -7 0
16 -84 -18 0
24 -84 -25 0
29 -84 -30 0
2 -84 -36 0
41 -84 -42 0
45 -84 -46 0
51 -84 -52 0
59 -84 -60 0
65 -84 -66 0
70 -84 -71 0
4 -84 -38 0
17 -84 -20 0
6 -84 -9 0
-103 -84 19 0
-101 -84 8 0
-89 -84 13 0
-90 -84 37 0
-91 -84 31 0
-92 -84 34 0
-93 -84 53 0
-94 -84 47 0
-96 -84 67 0
-97 -84 61 0
-98 -84 63 0
-99 -84 32 0
-104 -84 10 0
-102 -84 21 0
1 -85 -7 0
16 -85 -18 0
24 -85 -25 0
29 -85 -30 0
2 -85 -36 0
41 -85 -42 0
45 -85 -46 0
51 -85 -52 0
3 -85 -56 0
65 -85 -66 0
70 -85 -71 0
17 -85 -20 0
6 -85 -9 0
12 -85 -14 0
-103 -85 19 0
-101 -85 8 0
-89 -85 13 0
-90 -85 37 0
-91 -85 31 0
-92 -85 34 0
-93 -85 53 0
-94 -85 47 0
-95 -85 49 0
-97 -85 61 0
-98 -85 63 0
-104 -85 10 0
-102 -85 21 0
-100 -85 26 0
1 -87 -7 0
16 -87 -18 0
24 -87 -25 0
29 -87 -30 0
2 -87 -36 0
41 -87 -42 0
45 -87 -46 0
51 -87 -52 0
3 -87 -56 0
59 -87 -60 0
70 -87 -71 0
4 -87 -38 0
6 -87 -9 0
12 -87 -14 0
-103 -87 19 0
-101 -87 8 0
-89 -87 13 0
-90 -87 37 0
-91 -87 31 0
-92 -87 34 0
-93 -87 53 0
-94 -87 47 0
-95 -87 49 0
-96 -87 67 0
-98 -87 63 0
-99 -87 32 0
-102 -87 21 0
-100 -87 26 0
1 -88 -7 0
16 -88 -18 0
24 -88 -25 0
29 -88 -30 0
2 -88 -36 0
41 -88 -42 0
45 -88 -46 0
51 -88 -52 0
3 -88 -56 0
59 -88 -60 0
65 -88 -66 0
4 -88 -38 0
17 -88 -20 0
12 -88 -14 0
-103 -88 19 0
-101 -88 8 0
-89 -88 13 0
-90 -88 37 0
-91 -88 31 0
-92 -88 34 0
-93 -88 53 0
-94 -88 47 0
-95 -88 49 0
-96 -88 67 0
-97 -88 61 0
-99 -88 32 0
-104 -88 10 0
-100 -88 26 0

